
Gurobi 9.0.1 (linux64) logging started Thu Apr 30 22:55:35 2020

Gurobi Optimizer version 9.0.1 build v9.0.1rc0 (linux64)
Optimize a model with 32222 rows, 27380 columns and 603960 nonzeros
Model fingerprint: 0x4f9ea8c4
Variable types: 0 continuous, 27380 integer (27342 binary)
Coefficient statistics:
  Matrix range     [1e+00, 2e+01]
  Objective range  [2e+00, 1e+02]
  Bounds range     [1e+00, 1e+00]
  RHS range        [1e+00, 1e+00]

User MIP start produced solution with objective 1132 (0.87s)
Loaded user MIP start with objective 1132

Presolve removed 14186 rows and 9384 columns (presolve time = 5s) ...
Presolve removed 14228 rows and 9444 columns (presolve time = 10s) ...
Presolve removed 14228 rows and 9444 columns
Presolve time: 11.20s
Presolved: 17994 rows, 17936 columns, 501120 nonzeros
Variable types: 0 continuous, 17936 integer (17900 binary)

Root simplex log...

Iteration    Objective       Primal Inf.    Dual Inf.      Time
       0    0.0000000e+00   1.940000e+02   0.000000e+00     14s
    1438    5.2300006e+02   1.380757e+04   0.000000e+00     15s
    3347    5.2851382e+02   3.566853e+03   0.000000e+00     20s
    4592    5.3201860e+02   5.718464e+03   0.000000e+00     25s
    6169    5.3595783e+02   4.518839e+04   0.000000e+00     30s
    7580    5.3877529e+02   4.285151e+03   0.000000e+00     35s
    8908    5.4145643e+02   1.718353e+04   0.000000e+00     40s
   10070    5.4355987e+02   3.773635e+03   0.000000e+00     45s
   11149    5.4519735e+02   2.748302e+03   0.000000e+00     50s
   12286    5.4654860e+02   3.091842e+03   0.000000e+00     55s
   13365    5.4789181e+02   2.915807e+04   0.000000e+00     60s
   14376    5.4900964e+02   2.579030e+03   0.000000e+00     65s
   15380    5.4978886e+02   5.077447e+03   0.000000e+00     70s
   16293    5.5061603e+02   1.362836e+03   0.000000e+00     75s
   17211    5.5137862e+02   7.419249e+02   0.000000e+00     80s
   18137    5.5220806e+02   7.005021e+02   0.000000e+00     85s
   18967    5.5275853e+02   1.024332e+03   0.000000e+00     90s
   19887    5.5308279e+02   7.245739e+02   0.000000e+00     95s
   20896    5.5355008e+02   1.345422e+03   0.000000e+00    100s
   21809    5.5387261e+02   7.844816e+02   0.000000e+00    105s
   22600    5.5401809e+02   8.638147e+02   0.000000e+00    110s
   23492    5.5415848e+02   5.388388e+03   0.000000e+00    115s
   24331    5.5425698e+02   1.892670e+03   0.000000e+00    120s
   25167    5.5431547e+02   1.906326e+02   0.000000e+00    126s
   25480    5.5432203e+02   0.000000e+00   0.000000e+00    127s

Root relaxation: objective 5.543220e+02, 25480 iterations, 115.20 seconds

    Nodes    |    Current Node    |     Objective Bounds      |     Work
 Expl Unexpl |  Obj  Depth IntInf | Incumbent    BestBd   Gap | It/Node Time

     0     0  554.32203    0 2032 1132.00000  554.32203  51.0%     -  136s
     0     0  582.76573    0 2041 1132.00000  582.76573  48.5%     -  268s
     0     0  585.93902    0 2024 1132.00000  585.93902  48.2%     -  324s
     0     0  585.97622    0 2045 1132.00000  585.97622  48.2%     -  333s
     0     0  585.97774    0 2026 1132.00000  585.97774  48.2%     -  335s
     0     0  598.59355    0 2092 1132.00000  598.59355  47.1%     -  457s
     0     0  599.09554    0 2051 1132.00000  599.09554  47.1%     -  500s
     0     0  599.10674    0 2072 1132.00000  599.10674  47.1%     -  505s
     0     0  599.11039    0 2064 1132.00000  599.11039  47.1%     -  509s
     0     0  607.92675    0 2102 1132.00000  607.92675  46.3%     -  702s
     0     0  611.64121    0 2154 1132.00000  611.64121  46.0%     -  806s
     0     0  611.94511    0 2139 1132.00000  611.94511  45.9%     -  829s
     0     0  611.95686    0 2158 1132.00000  611.95686  45.9%     -  835s
     0     0  611.95960    0 2147 1132.00000  611.95960  45.9%     -  838s
     0     0  615.91926    0 2273 1132.00000  615.91926  45.6%     -  981s
     0     0  617.09302    0 2225 1132.00000  617.09302  45.5%     - 1058s
     0     0  617.37753    0 2240 1132.00000  617.37753  45.5%     - 1086s
     0     0  617.43109    0 2221 1132.00000  617.43109  45.5%     - 1099s
     0     0  617.44016    0 2248 1132.00000  617.44016  45.5%     - 1107s
     0     0  618.49729    0 2228 1132.00000  618.49729  45.4%     - 1183s
     0     0  618.59139    0 2239 1132.00000  618.59139  45.4%     - 1225s
     0     0  618.61901    0 2217 1132.00000  618.61901  45.4%     - 1233s
     0     0  618.62466    0 2242 1132.00000  618.62466  45.4%     - 1238s
     0     0  619.97453    0 2313 1132.00000  619.97453  45.2%     - 1332s
     0     0  620.07729    0 2304 1132.00000  620.07729  45.2%     - 1377s
     0     0  620.10510    0 2294 1132.00000  620.10510  45.2%     - 1387s
     0     0  620.11124    0 2311 1132.00000  620.11124  45.2%     - 1391s
     0     0  620.27861    0 2302 1132.00000  620.27861  45.2%     - 1423s
     0     0  620.32921    0 2290 1132.00000  620.32921  45.2%     - 1443s
     0     0  620.33630    0 2304 1132.00000  620.33630  45.2%     - 1448s
     0     0  620.57160    0 2311 1132.00000  620.57160  45.2%     - 1481s
     0     0  620.61672    0 2336 1132.00000  620.61672  45.2%     - 1495s
     0     0  620.62300    0 2358 1132.00000  620.62300  45.2%     - 1500s
     0     0  621.44637    0 2325 1132.00000  621.44637  45.1%     - 1558s
     0     0  621.55461    0 2332 1132.00000  621.55461  45.1%     - 1583s
     0     0  621.57192    0 2341 1132.00000  621.57192  45.1%     - 1592s
     0     0  621.87555    0 2324 1132.00000  621.87555  45.1%     - 1631s
     0     0  621.95299    0 2336 1132.00000  621.95299  45.1%     - 1681s
     0     0  621.96872    0 2342 1132.00000  621.96872  45.1%     - 1692s
     0     0  622.29177    0 2338 1132.00000  622.29177  45.0%     - 1744s
     0     0  622.38280    0 2351 1132.00000  622.38280  45.0%     - 1775s
     0     0  622.40460    0 2365 1132.00000  622.40460  45.0%     - 1786s
     0     0  622.40793    0 2377 1132.00000  622.40793  45.0%     - 1792s
     0     0  622.54617    0 2341 1132.00000  622.54617  45.0%     - 1826s
     0     0  622.59832    0 2386 1132.00000  622.59832  45.0%     - 1846s
     0     0  622.60594    0 2387 1132.00000  622.60594  45.0%     - 1854s
     0     0  622.74129    0 2363 1132.00000  622.74129  45.0%     - 1882s
     0     0  622.78990    0 2347 1132.00000  622.78990  45.0%     - 1903s
     0     0  622.81642    0 2348 1132.00000  622.81642  45.0%     - 1915s
     0     0  622.82220    0 2358 1132.00000  622.82220  45.0%     - 1922s
     0     0  622.95060    0 2364 1132.00000  622.95060  45.0%     - 1950s
     0     0  623.02356    0 2389 1132.00000  623.02356  45.0%     - 1971s
     0     0  623.04017    0 2397 1132.00000  623.04017  45.0%     - 1980s
     0     0  623.31640    0 2378 1132.00000  623.31640  44.9%     - 2026s
     0     0  623.39077    0 2370 1132.00000  623.39077  44.9%     - 2047s
     0     0  623.42922    0 2372 1132.00000  623.42922  44.9%     - 2061s
     0     0  623.43743    0 2364 1132.00000  623.43743  44.9%     - 2068s
     0     0  623.61328    0 2383 1132.00000  623.61328  44.9%     - 2103s
     0     0  623.65458    0 2385 1132.00000  623.65458  44.9%     - 2121s
     0     0  623.67089    0 2372 1132.00000  623.67089  44.9%     - 2134s
     0     0  623.89868    0 2394 1132.00000  623.89868  44.9%     - 2176s
     0     0  623.93298    0 2391 1132.00000  623.93298  44.9%     - 2194s
     0     0  623.94878    0 2404 1132.00000  623.94878  44.9%     - 2204s
     0     0  624.16112    0 2386 1132.00000  624.16112  44.9%     - 2245s
     0     0  624.21397    0 2405 1132.00000  624.21397  44.9%     - 2327s
     0     0  624.23480    0 2402 1132.00000  624.23480  44.9%     - 2339s
     0     0  624.72856    0 2349 1132.00000  624.72856  44.8%     - 2392s
     0     0  624.78794    0 2377 1132.00000  624.78794  44.8%     - 2416s
     0     0  624.79862    0 2393 1132.00000  624.79862  44.8%     - 2423s
     0     0  624.89172    0 2407 1132.00000  624.89172  44.8%     - 2450s
     0     0  624.89172    0 2397 1132.00000  624.89172  44.8%     - 2470s
     0     2  624.89615    0 2388 1132.00000  624.89615  44.8%     - 2779s
     1     3  627.22418    1 2381 1132.00000  624.89615  44.8% 29636 3023s
     2     4  631.10411    1 2239 1132.00000  627.22626  44.6% 29312 3266s
     3     5  628.88703    2 2297 1132.00000  627.22802  44.6% 22845 3348s

Cutting planes:
  MIR: 161
  StrongCG: 23
  Zero half: 60
  Mod-K: 4
  RLT: 932

Explored 4 nodes (327305 simplex iterations) in 3600.02 seconds
Thread count was 1 (of 40 available processors)

Solution count 1: 1132 

Time limit reached
Best objective 1.132000000000e+03, best bound 6.280000000000e+02, gap 44.5230%

User-callback calls 49296, time in user-callback 0.13 sec
